data/solutions/recovery/degenerate/intermediate/binding/degenerate_intermediate_instance23/9.sol
Elapsed time: 0.03
Upper bound: 237758219.0
Planning weighted value: 9.26536852909e+11
C[0]=237758219.0
C[1]=237516147.0
C[2]=235695061.0
C[3]=230461672.0
C[4]=230131340.0
C[5]=226648175.0
C[6]=226396016.0
C[7]=224440486.0
C[8]=213310623.0
C[9]=211056558.0
C[10]=208991603.0
C[11]=0.0
y[0]=6
y[1]=1
y[2]=6
y[3]=6
y[4]=9
y[5]=7
y[6]=0
y[7]=1
y[8]=4
y[9]=3
y[10]=3
y[11]=0
y[12]=7
y[13]=2
y[14]=8
y[15]=8
y[16]=3
y[17]=6
y[18]=2
y[19]=2
y[20]=8
y[21]=6
y[22]=1
y[23]=8
y[24]=3
y[25]=3
y[26]=3
y[27]=4
y[28]=1
y[29]=4
y[30]=5
y[31]=4
y[32]=6
y[33]=5
y[34]=10
y[35]=5
y[36]=10
y[37]=9
y[38]=9
y[39]=7
y[40]=7
y[41]=8
y[42]=6
y[43]=3
y[44]=7
y[45]=0
y[46]=7
y[47]=10
y[48]=7
y[49]=6
y[50]=10
y[51]=2
y[52]=3
y[53]=0
y[54]=0
y[55]=7
y[56]=5
y[57]=0
y[58]=9
y[59]=10
y[60]=5
y[61]=8
y[62]=2
y[63]=4
y[64]=10
y[65]=9
y[66]=4
y[67]=1
y[68]=1
y[69]=9
y[70]=10
y[71]=5
y[72]=1
y[73]=8
y[74]=4
y[75]=2
y[76]=7
y[77]=4
