data/solutions/recovery/degenerate/intermediate/binding/degenerate_intermediate_instance23/9.log

Log started (V12.6.3.0) Sun Apr 22 12:29:23 2018

New value for default parallel thread count: 1

Problem '/tmp/tmpseDRNm.pyomo.lp' read.
Read time = 0.01 sec. (0.84 ticks)

Problem name         : /tmp/tmpseDRNm.pyomo.lp
Objective sense      : Minimize
Variables            :     950  [Nneg: 1,  Binary: 936,  General Integer: 13]
Objective nonzeros   :       1
Linear constraints   :     182  [Less: 90,  Equal: 92]
  Nonzeros           :   60259
  RHS nonzeros       :      79

Variables            : Min LB: 0.000000         Max UB: 1.000000       
Objective nonzeros   : Min   : 1.000000         Max   : 1.000000       
Linear constraints   :
  Nonzeros           : Min   : 1.000000         Max   : 6.145599e+07   
  RHS nonzeros       : Min   : 1.000000         Max   : 1.000000       
Tried aggregator 1 time.
MIP Presolve eliminated 150 rows and 828 columns.
Reduced MIP has 32 rows, 122 columns, and 253 nonzeros.
Reduced MIP has 110 binaries, 12 generals, 0 SOSs, and 0 indicators.
Presolve time = 0.00 sec. (3.34 ticks)
Found incumbent of value 5.6944671e+08 after 0.01 sec. (4.84 ticks)
Probing time = 0.00 sec. (0.37 ticks)
Tried aggregator 1 time.
Reduced MIP has 32 rows, 122 columns, and 253 nonzeros.
Reduced MIP has 110 binaries, 12 generals, 0 SOSs, and 0 indicators.
Presolve time = 0.00 sec. (0.21 ticks)
Probing time = 0.00 sec. (0.37 ticks)
Clique table members: 10.
MIP emphasis: balance optimality and feasibility.
MIP search method: dynamic search.
Parallel mode: none, using 1 thread.
Root relaxation solution time = 0.00 sec. (0.26 ticks)

        Nodes                                         Cuts/
   Node  Left     Objective  IInf  Best Integer    Best Bound    ItCnt     Gap

*     0+    0                       5.69447e+08   2.37758e+08            58.25%
      0     0   2.37758e+08    13   5.69447e+08   2.37758e+08       54   58.25%
*     0+    0                       2.37758e+08   2.37758e+08             0.00%
      0     0        cutoff         2.37758e+08   2.37758e+08       54    0.00%
Elapsed time = 0.01 sec. (6.29 ticks, tree = 0.01 MB, solutions = 2)

Root node processing (before b&c):
  Real time             =    0.01 sec. (6.32 ticks)
Sequential b&c:
  Real time             =    0.00 sec. (0.00 ticks)
                          ------------
Total (root+branch&cut) =    0.01 sec. (6.32 ticks)

Solution pool: 2 solutions saved.

MIP - Integer optimal solution:  Objective =  2.3775821900e+08
Solution time =    0.01 sec.  Iterations = 54  Nodes = 0
Deterministic time = 6.32 ticks  (821.36 ticks/sec)


Incumbent solution written to file '/tmp/tmpthQjf9.cplex.sol'.
